549
1 0 5 455 1 472 1 471 1 470 1 468 1
2 0 5 306 1 184 1 253 1 97 1 185 1
3 0 5 415 1 7 1 140 1 123 1 281 1
4 0 5 363 1 378 1 342 1 310 1 409 1
5 0 5 109 1 14 1 76 1 165 1 18 1
6 0 5 117 1 164 1 33 1 159 1 21 1
7 0 5 171 1 242 1 415 1 281 1 283 1
8 0 5 50 1 110 1 162 1 113 1 83 1
9 0 5 198 1 130 1 59 1 194 1 163 1
10 0 5 164 1 39 1 54 1 113 1 157 1
11 0 5 52 1 241 1 267 1 178 1 134 1
12 0 5 136 1 161 1 193 1 172 1 88 1
13 0 5 374 1 178 1 11 1 100 1 226 1
14 0 5 5 1 18 1 167 1 165 1 109 1
15 0 5 68 1 138 1 38 1 125 1 132 1
16 0 5 129 1 98 1 69 1 115 1 63 1
17 0 5 33 1 101 1 18 1 157 1 76 1
18 0 5 14 1 165 1 109 1 101 1 17 1
19 0 5 311 1 244 1 326 1 387 1 300 1
20 0 5 230 1 357 1 319 1 418 1 347 1
21 0 5 170 1 159 1 117 1 191 1 6 1
22 0 5 95 1 149 1 28 1 168 1 83 1
23 0 5 60 1 459 1 469 1 468 1 467 1
24 0 5 57 1 190 1 209 1 51 1 96 1
25 0 5 49 1 253 1 185 1 48 1 180 1
26 0 5 195 1 241 1 102 1 226 1 361 1
27 0 5 381 1 307 1 256 1 293 1 364 1
28 0 5 22 1 149 1 39 1 118 1 54 1
29 0 5 291 1 346 1 264 1 96 1 57 1
30 0 5 368 1 146 1 135 1 327 1 257 1
31 0 5 275 1 231 1 315 1 221 1 401 1
32 0 5 108 1 127 1 151 1 135 1 62 1
33 0 5 17 1 6 1 76 1 101 1 164 1
34 0 5 259 1 328 1 260 1 247 1 182 1
35 0 5 125 1 131 1 204 1 38 1 138 1
36 0 5 206 1 131 1 204 1 181 1 379 1
37 0 5 250 1 289 1 248 1 407 1 277 1
38 0 5 15 1 204 1 138 1 68 1 125 1
39 0 5 10 1 157 1 28 1 164 1 54 1
40 0 5 339 1 100 1 147 1 71 1 52 1
41 0 5 180 1 75 1 184 1 253 1 49 1
42 0 5 83 1 110 1 126 1 113 1 28 1
43 0 5 80 1 119 1 120 1 67 1 167 1
44 0 5 77 1 306 1 184 1 253 1 369 1
45 0 5 48 1 184 1 200 1 180 1 174 1
46 0 5 186 1 288 1 357 1 418 1 20 1
47 0 5 151 1 91 1 105 1 62 1 108 1
48 0 5 253 1 180 1 184 1 85 1 25 1
49 0 5 25 1 185 1 253 1 180 1 75 1
50 0 5 162 1 82 1 8 1 110 1 83 1
51 0 5 372 1 144 1 190 1 296 1 57 1
52 0 5 11 1 134 1 53 1 267 1 178 1
53 0 5 93 1 246 1 134 1 150 1 52 1
54 0 5 113 1 126 1 83 1 10 1 22 1
55 0 5 149 1 90 1 103 1 118 1 176 1
56 0 5 88 1 136 1 70 1 172 1 97 1
57 0 5 24 1 190 1 51 1 96 1 209 1
58 0 5 137 1 146 1 127 1 30 1 151 1
59 0 5 130 1 156 1 198 1 9 1 141 1
60 0 5 23 1 345 1 304 1 158 1 377 1
61 0 5 121 1 87 1 124 1 208 1 415 1
62 0 5 105 1 187 1 91 1 108 1 66 1
63 0 5 152 1 69 1 129 1 16 1 98 1
64 0 5 239 1 413 1 398 1 312 1 268 1
65 0 5 317 1 278 1 316 1 361 1 102 1
66 0 5 166 1 187 1 142 1 62 1 67 1
67 0 5 119 1 166 1 120 1 197 1 66 1
68 0 5 132 1 15 1 204 1 38 1 372 1
69 0 5 98 1 63 1 16 1 129 1 115 1
70 0 5 153 1 88 1 56 1 106 1 97 1
71 0 5 40 1 376 1 100 1 214 1 284 1
72 0 5 99 1 250 1 107 1 37 1 289 1
73 0 5 114 1 155 1 140 1 287 1 121 1
74 0 5 377 1 304 1 23 1 60 1 464 1
75 0 5 185 1 84 1 115 1 180 1 41 1
76 0 5 109 1 165 1 101 1 17 1 18 1
77 0 5 276 1 418 1 186 1 44 1 230 1
78 0 5 87 1 124 1 89 1 92 1 127 1
79 0 5 334 1 383 1 223 1 341 1 282 1
80 0 5 43 1 119 1 120 1 67 1 167 1
81 0 5 269 1 318 1 323 1 277 1 233 1
82 0 5 94 1 162 1 50 1 110 1 8 1
83 0 5 126 1 42 1 113 1 94 1 54 1
84 0 5 75 1 86 1 103 1 90 1 183 1
85 0 5 369 1 398 1 345 1 48 1 253 1
86 0 5 173 1 139 1 84 1 90 1 168 1
87 0 5 208 1 78 1 121 1 61 1 92 1
88 0 5 56 1 70 1 136 1 172 1 133 1
89 0 5 92 1 124 1 340 1 137 1 146 1
90 0 5 55 1 168 1 118 1 103 1 139 1
91 0 5 105 1 47 1 62 1 170 1 202 1
92 0 5 340 1 89 1 144 1 87 1 208 1
93 0 5 179 1 246 1 53 1 266 1 134 1
94 0 5 82 1 116 1 83 1 110 1 42 1
95 0 5 163 1 22 1 116 1 198 1 9 1
96 0 5 57 1 24 1 209 1 264 1 92 1
97 0 5 106 1 306 1 185 1 70 1 2 1
98 0 5 69 1 115 1 16 1 63 1 185 1
99 0 5 72 1 107 1 289 1 37 1 250 1
100 0 5 40 1 147 1 339 1 52 1 13 1
101 0 5 165 1 17 1 76 1 18 1 157 1
102 0 5 361 1 226 1 26 1 374 1 401 1
103 0 5 90 1 55 1 191 1 139 1 84 1
104 0 5 338 1 413 1 271 1 358 1 199 1
105 0 5 62 1 91 1 202 1 47 1 21 1
106 0 5 97 1 153 1 70 1 185 1 88 1
107 0 5 99 1 72 1 248 1 399 1 408 1
108 0 5 151 1 266 1 62 1 179 1 47 1
109 0 5 5 1 76 1 18 1 165 1 14 1
110 0 5 8 1 42 1 50 1 94 1 82 1
111 0 5 410 1 331 1 337 1 365 1 388 1
112 0 5 260 1 308 1 360 1 182 1 328 1
113 0 5 54 1 126 1 83 1 8 1 22 1
114 0 5 73 1 171 1 140 1 242 1 287 1
115 0 5 98 1 16 1 173 1 75 1 185 1
116 0 5 163 1 94 1 95 1 22 1 83 1
117 0 5 191 1 6 1 21 1 164 1 159 1
118 0 5 168 1 90 1 22 1 28 1 55 1
119 0 5 43 1 80 1 67 1 179 1 166 1
120 0 5 197 1 167 1 80 1 67 1 43 1
121 0 5 287 1 140 1 61 1 208 1 155 1
122 0 5 135 1 30 1 146 1 192 1 137 1
123 0 5 281 1 207 1 307 1 293 1 143 1
124 0 5 78 1 89 1 61 1 30 1 87 1
125 0 5 35 1 138 1 15 1 38 1 204 1
126 0 5 83 1 113 1 54 1 42 1 10 1
127 0 5 58 1 32 1 137 1 78 1 468 1
128 0 5 270 1 385 1 237 1 251 1 262 1
129 0 5 160 1 16 1 63 1 69 1 98 1
130 0 5 59 1 9 1 198 1 156 1 141 1
131 0 5 35 1 36 1 380 1 204 1 188 1
132 0 5 68 1 204 1 372 1 379 1 181 1
133 0 5 210 1 172 1 88 1 169 1 193 1
134 0 5 150 1 267 1 52 1 53 1 11 1
135 0 5 192 1 122 1 30 1 257 1 146 1
136 0 5 12 1 56 1 88 1 172 1 70 1
137 0 5 58 1 89 1 30 1 146 1 127 1
138 0 5 15 1 125 1 38 1 204 1 35 1
139 0 5 173 1 86 1 156 1 90 1 103 1
140 0 5 121 1 73 1 114 1 287 1 415 1
141 0 5 194 1 152 1 156 1 63 1 59 1
142 0 5 167 1 187 1 197 1 66 1 166 1
143 0 5 257 1 327 1 123 1 391 1 30 1
144 0 5 372 1 51 1 92 1 208 1 57 1
145 0 5 200 1 344 1 358 1 64 1 413 1
146 0 5 30 1 122 1 135 1 58 1 89 1
147 0 5 100 1 40 1 339 1 52 1 13 1
148 0 5 454 1 471 1 470 1 469 1 467 1
149 0 5 22 1 55 1 28 1 191 1 90 1
150 0 5 134 1 267 1 53 1 179 1 93 1
151 0 5 108 1 47 1 62 1 105 1 122 1
152 0 5 194 1 63 1 141 1 156 1 69 1
153 0 5 106 1 70 1 97 1 185 1 88 1
154 0 5 164 1 6 1 21 1 159 1 170 1
155 0 5 287 1 73 1 121 1 208 1 140 1
156 0 5 59 1 139 1 130 1 141 1 152 1
157 0 5 165 1 39 1 101 1 8 1 17 1
158 0 5 345 1 180 1 304 1 48 1 23 1
159 0 5 21 1 6 1 105 1 117 1 170 1
160 0 5 129 1 16 1 63 1 98 1 69 1
161 0 5 12 1 210 1 193 1 172 1 133 1
162 0 5 50 1 82 1 8 1 110 1 109 1
163 0 5 116 1 95 1 22 1 9 1 198 1
164 0 5 10 1 6 1 191 1 39 1 154 1
165 0 5 157 1 101 1 76 1 18 1 14 1
166 0 5 187 1 66 1 67 1 142 1 62 1
167 0 5 142 1 197 1 120 1 14 1 18 1
168 0 5 118 1 90 1 173 1 22 1 28 1
169 0 5 210 1 288 1 324 1 133 1 172 1
170 0 5 21 1 159 1 105 1 91 1 117 1
171 0 5 242 1 7 1 114 1 283 1 201 1
172 0 5 133 1 193 1 88 1 161 1 210 1
173 0 5 86 1 139 1 168 1 115 1 75 1
174 0 5 180 1 45 1 23 1 60 1 464 1
175 0 5 400 1 348 1 392 1 329 1 406 1
176 0 5 55 1 191 1 90 1 103 1 117 1
177 0 5 312 1 276 1 230 1 273 1 347 1
178 0 5 374 1 11 1 13 1 226 1 52 1
179 0 5 93 1 266 1 119 1 246 1 67 1
180 0 5 75 1 41 1 48 1 345 1 158 1
181 0 5 379 1 206 1 204 1 36 1 132 1
182 0 5 189 1 247 1 260 1 34 1 112 1
183 0 5 84 1 103 1 464 1 463 1 462 1
184 0 5 2 1 253 1 41 1 48 1 185 1
185 0 5 75 1 49 1 97 1 25 1 115 1
186 0 5 46 1 418 1 77 1 276 1 306 1
187 0 5 166 1 66 1 142 1 62 1 18 1
188 0 5 380 1 318 1 81 1 131 1 407 1
189 0 5 247 1 182 1 259 1 360 1 260 1
190 0 5 296 1 51 1 57 1 24 1 209 1
191 0 5 117 1 149 1 21 1 164 1 103 1
192 0 5 135 1 257 1 205 1 122 1 284 1
193 0 5 12 1 172 1 161 1 133 1 88 1
194 0 5 152 1 141 1 63 1 9 1 156 1
195 0 5 26 1 241 1 102 1 226 1 11 1
196 0 5 377 1 345 1 291 1 220 1 234 1
197 0 5 120 1 167 1 67 1 142 1 166 1
198 0 5 9 1 130 1 59 1 95 1 168 1
199 0 5 271 1 338 1 359 1 341 1 252 1
200 0 5 344 1 145 1 104 1 413 1 299 1
201 0 5 336 1 366 1 283 1 262 1 238 1
202 0 5 105 1 91 1 47 1 159 1 460 1
203 0 5 263 1 389 1 265 1 280 1 343 1
204 0 5 38 1 132 1 181 1 36 1 68 1
205 0 5 257 1 192 1 284 1 40 1 147 1
206 0 5 36 1 181 1 420 1 292 1 204 1
207 0 5 281 1 123 1 327 1 307 1 143 1
208 0 5 87 1 121 1 61 1 155 1 287 1
209 0 5 24 1 57 1 190 1 264 1 96 1
210 0 5 169 1 133 1 161 1 172 1 193 1
211 0 5 309 1 280 1 373 1 389 1 371 1
212 0 5 333 1 219 1 305 1 320 1 330 1
213 0 5 298 1 217 1 275 1 256 1 31 1
214 0 5 284 1 255 1 254 1 71 1 394 1
215 0 5 353 1 404 1 305 1 396 1 352 1
216 0 5 301 1 328 1 334 1 112 1 34 1
217 0 5 298 1 213 1 237 1 354 1 275 1
218 0 5 342 1 321 1 300 1 367 1 363 1
219 0 5 333 1 212 1 305 1 320 1 396 1
220 0 5 348 1 249 1 196 1 299 1 234 1
221 0 5 231 1 315 1 401 1 275 1 31 1
222 0 5 408 1 248 1 399 1 107 1 311 1
223 0 5 334 1 79 1 282 1 371 1 383 1
224 0 5 314 1 363 1 409 1 4 1 378 1
225 0 5 223 1 334 1 282 1 371 1 341 1
226 0 5 374 1 102 1 241 1 11 1 26 1
227 0 5 416 1 330 1 297 1 310 1 320 1
228 0 5 323 1 375 1 305 1 320 1 277 1
229 0 5 337 1 420 1 419 1 331 1 292 1
230 0 5 20 1 418 1 357 1 319 1 177 1
231 0 5 221 1 315 1 31 1 275 1 401 1
232 0 5 303 1 419 1 356 1 420 1 261 1
233 0 5 269 1 407 1 318 1 81 1 380 1
234 0 5 302 1 291 1 196 1 346 1 220 1
235 0 5 111 1 365 1 274 1 351 1 346 1
236 0 5 387 1 405 1 397 1 332 1 375 1
237 0 5 262 1 385 1 128 1 298 1 238 1
238 0 5 364 1 262 1 366 1 256 1 381 1
239 0 5 312 1 64 1 413 1 358 1 313 1
240 0 5 359 1 341 1 268 1 313 1 383 1
241 0 5 195 1 26 1 11 1 226 1 267 1
242 0 5 171 1 7 1 114 1 283 1 201 1
243 0 5 263 1 343 1 252 1 224 1 389 1
244 0 5 311 1 408 1 248 1 222 1 19 1
245 0 5 322 1 335 1 384 1 272 1 406 1
246 0 5 93 1 53 1 349 1 266 1 134 1
247 0 5 189 1 182 1 260 1 34 1 259 1
248 0 5 222 1 107 1 37 1 408 1 311 1
249 0 5 348 1 220 1 199 1 252 1 338 1
250 0 5 72 1 37 1 289 1 99 1 407 1
251 0 5 285 1 270 1 262 1 128 1 201 1
252 0 5 271 1 243 1 199 1 383 1 249 1
253 0 5 25 1 48 1 184 1 306 1 2 1
254 0 5 394 1 376 1 370 1 401 1 255 1
255 0 5 370 1 254 1 214 1 31 1 394 1
256 0 5 412 1 381 1 354 1 238 1 27 1
257 0 5 143 1 368 1 327 1 135 1 284 1
258 0 5 343 1 321 1 342 1 218 1 363 1
259 0 5 34 1 189 1 328 1 390 1 247 1
260 0 5 112 1 182 1 247 1 360 1 34 1
261 0 5 356 1 318 1 303 1 420 1 232 1
262 0 5 237 1 385 1 285 1 238 1 366 1
263 0 5 343 1 265 1 203 1 243 1 321 1
264 0 5 96 1 209 1 24 1 29 1 92 1
265 0 5 263 1 395 1 311 1 300 1 321 1
266 0 5 179 1 93 1 108 1 246 1 349 1
267 0 5 134 1 150 1 11 1 52 1 53 1
268 0 5 313 1 240 1 358 1 359 1 64 1
269 0 5 233 1 81 1 277 1 323 1 318 1
270 0 5 128 1 251 1 278 1 262 1 237 1
271 0 5 199 1 383 1 341 1 104 1 338 1
272 0 5 335 1 386 1 414 1 295 1 352 1
273 0 5 279 1 347 1 312 1 301 1 319 1
274 0 5 388 1 365 1 331 1 410 1 351 1
275 0 5 31 1 221 1 231 1 401 1 213 1
276 0 5 77 1 418 1 186 1 177 1 230 1
277 0 5 323 1 332 1 269 1 81 1 37 1
278 0 5 317 1 65 1 290 1 361 1 270 1
279 0 5 382 1 273 1 319 1 347 1 301 1
280 0 5 309 1 395 1 286 1 373 1 211 1
281 0 5 207 1 123 1 293 1 283 1 307 1
282 0 5 371 1 373 1 308 1 223 1 334 1
283 0 5 293 1 201 1 281 1 366 1 7 1
284 0 5 257 1 214 1 391 1 205 1 254 1
285 0 5 251 1 262 1 270 1 385 1 201 1
286 0 5 308 1 399 1 373 1 326 1 112 1
287 0 5 155 1 121 1 73 1 140 1 208 1
288 0 5 169 1 324 1 46 1 357 1 418 1
289 0 5 407 1 250 1 37 1 72 1 99 1
290 0 5 361 1 278 1 401 1 102 1 221 1
291 0 5 346 1 304 1 29 1 377 1 196 1
292 0 5 420 1 296 1 206 1 379 1 229 1
293 0 5 283 1 281 1 366 1 307 1 123 1
294 0 5 350 1 390 1 382 1 301 1 279 1
295 0 5 386 1 403 1 352 1 331 1 410 1
296 0 5 190 1 372 1 379 1 51 1 292 1
297 0 5 367 1 402 1 416 1 227 1 417 1
298 0 5 217 1 354 1 213 1 237 1 412 1
299 0 5 252 1 199 1 325 1 377 1 200 1
300 0 5 321 1 311 1 326 1 19 1 362 1
301 0 5 216 1 328 1 382 1 334 1 294 1
302 0 5 234 1 393 1 329 1 235 1 346 1
303 0 5 232 1 419 1 356 1 261 1 228 1
304 0 5 291 1 377 1 454 1 457 1 456 1
305 0 5 320 1 228 1 219 1 215 1 375 1
306 0 5 2 1 97 1 253 1 186 1 48 1
307 0 5 27 1 391 1 123 1 293 1 281 1
308 0 5 286 1 112 1 373 1 360 1 399 1
309 0 5 280 1 373 1 286 1 308 1 211 1
310 0 5 416 1 227 1 417 1 367 1 330 1
311 0 5 19 1 244 1 362 1 300 1 248 1
312 0 5 177 1 273 1 239 1 347 1 319 1
313 0 5 268 1 240 1 358 1 239 1 413 1
314 0 5 224 1 409 1 4 1 363 1 392 1
315 0 5 221 1 231 1 401 1 31 1 275 1
316 0 5 317 1 361 1 65 1 102 1 290 1
317 0 5 278 1 316 1 65 1 361 1 26 1
318 0 5 188 1 261 1 81 1 233 1 356 1
319 0 5 347 1 382 1 20 1 279 1 357 1
320 0 5 375 1 305 1 228 1 219 1 333 1
321 0 5 300 1 311 1 19 1 326 1 218 1
322 0 5 295 1 386 1 410 1 335 1 352 1
323 0 5 277 1 228 1 81 1 375 1 269 1
324 0 5 390 1 288 1 357 1 350 1 169 1
325 0 5 402 1 297 1 355 1 411 1 417 1
326 0 5 362 1 300 1 311 1 19 1 286 1
327 0 5 143 1 257 1 30 1 123 1 207 1
328 0 5 34 1 216 1 301 1 259 1 112 1
329 0 5 348 1 175 1 400 1 392 1 302 1
330 0 5 227 1 416 1 333 1 219 1 355 1
331 0 5 388 1 410 1 403 1 365 1 337 1
332 0 5 277 1 397 1 375 1 248 1 323 1
333 0 5 219 1 212 1 320 1 305 1 330 1
334 0 5 301 1 216 1 223 1 79 1 383 1
335 0 5 272 1 386 1 414 1 295 1 352 1
336 0 5 201 1 366 1 283 1 238 1 293 1
337 0 5 229 1 420 1 331 1 419 1 111 1
338 0 5 240 1 104 1 358 1 199 1 413 1
339 0 5 40 1 100 1 147 1 13 1 226 1
340 0 5 92 1 89 1 87 1 208 1 264 1
341 0 5 240 1 383 1 359 1 271 1 358 1
342 0 5 218 1 321 1 300 1 395 1 265 1
343 0 5 263 1 243 1 258 1 402 1 203 1
344 0 5 413 1 200 1 145 1 345 1 271 1
345 0 5 158 1 60 1 85 1 304 1 180 1
346 0 5 291 1 29 1 377 1 304 1 235 1
347 0 5 319 1 273 1 382 1 279 1 20 1
348 0 5 249 1 220 1 400 1 175 1 329 1
349 0 5 246 1 52 1 53 1 93 1 266 1
350 0 5 390 1 294 1 324 1 382 1 279 1
351 0 5 274 1 365 1 410 1 388 1 235 1
352 0 5 386 1 396 1 295 1 403 1 215 1
353 0 5 215 1 352 1 396 1 305 1 406 1
354 0 5 412 1 298 1 256 1 364 1 262 1
355 0 5 330 1 406 1 333 1 219 1 212 1
356 0 5 261 1 318 1 303 1 420 1 232 1
357 0 5 418 1 324 1 46 1 20 1 319 1
358 0 5 268 1 313 1 240 1 338 1 413 1
359 0 5 240 1 341 1 383 1 338 1 199 1
360 0 5 399 1 189 1 260 1 107 1 112 1
361 0 5 290 1 102 1 316 1 401 1 278 1
362 0 5 311 1 326 1 300 1 286 1 399 1
363 0 5 4 1 342 1 218 1 224 1 378 1
364 0 5 238 1 262 1 366 1 256 1 27 1
365 0 5 410 1 388 1 331 1 274 1 111 1
366 0 5 201 1 336 1 238 1 293 1 262 1
367 0 5 297 1 416 1 405 1 387 1 236 1
368 0 5 391 1 30 1 257 1 281 1 327 1
369 0 5 85 1 398 1 312 1 345 1 177 1
370 0 5 255 1 254 1 394 1 31 1 275 1
371 0 5 282 1 373 1 308 1 223 1 286 1
372 0 5 51 1 144 1 296 1 132 1 379 1
373 0 5 308 1 371 1 286 1 282 1 309 1
374 0 5 226 1 13 1 178 1 102 1 11 1
375 0 5 397 1 320 1 277 1 332 1 323 1
376 0 5 394 1 254 1 71 1 370 1 401 1
377 0 5 196 1 304 1 291 1 345 1 74 1
378 0 5 4 1 363 1 310 1 227 1 224 1
379 0 5 181 1 296 1 292 1 132 1 372 1
380 0 5 188 1 407 1 131 1 233 1 318 1
381 0 5 27 1 256 1 307 1 238 1 364 1
382 0 5 279 1 294 1 319 1 301 1 347 1
383 0 5 341 1 240 1 271 1 79 1 334 1
384 0 5 396 1 352 1 386 1 219 1 406 1
385 0 5 128 1 262 1 237 1 238 1 366 1
386 0 5 295 1 352 1 403 1 414 1 396 1
387 0 5 405 1 236 1 19 1 332 1 367 1
388 0 5 331 1 365 1 410 1 274 1 111 1
389 0 5 203 1 280 1 211 1 309 1 395 1
390 0 5 350 1 294 1 324 1 259 1 301 1
391 0 5 368 1 307 1 143 1 255 1 27 1
392 0 5 400 1 409 1 384 1 175 1 314 1
393 0 5 302 1 235 1 346 1 291 1 234 1
394 0 5 254 1 376 1 370 1 401 1 255 1
395 0 5 280 1 265 1 286 1 309 1 326 1
396 0 5 352 1 384 1 386 1 219 1 215 1
397 0 5 375 1 332 1 236 1 277 1 320 1
398 0 5 85 1 369 1 345 1 64 1 413 1
399 0 5 360 1 408 1 107 1 222 1 311 1
400 0 5 392 1 409 1 175 1 348 1 406 1
401 0 5 221 1 361 1 290 1 102 1 231 1
402 0 5 297 1 325 1 411 1 227 1 343 1
403 0 5 419 1 404 1 331 1 295 1 386 1
404 0 5 403 1 215 1 419 1 303 1 305 1
405 0 5 387 1 236 1 367 1 19 1 416 1
406 0 5 411 1 355 1 353 1 384 1 417 1
407 0 5 289 1 380 1 233 1 37 1 81 1
408 0 5 222 1 399 1 248 1 107 1 311 1
409 0 5 314 1 392 1 4 1 400 1 224 1
410 0 5 331 1 365 1 388 1 111 1 403 1
411 0 5 402 1 406 1 297 1 355 1 325 1
412 0 5 354 1 256 1 238 1 381 1 213 1
413 0 5 104 1 239 1 64 1 344 1 358 1
414 0 5 335 1 386 1 295 1 410 1 272 1
415 0 5 3 1 140 1 7 1 121 1 61 1
416 0 5 227 1 310 1 367 1 236 1 330 1
417 0 5 310 1 297 1 227 1 330 1 416 1
418 0 5 357 1 230 1 20 1 46 1 186 1
419 0 5 403 1 303 1 232 1 337 1 404 1
420 0 5 292 1 229 1 337 1 206 1 261 1
421 0 5 455 1 472 1 471 1 470 1 468 1
422 0 5 455 1 472 1 471 1 470 1 468 1
423 0 5 455 1 472 1 471 1 470 1 468 1
424 0 5 455 1 472 1 471 1 470 1 468 1
425 0 5 455 1 472 1 471 1 470 1 468 1
426 0 5 455 1 472 1 471 1 470 1 468 1
427 0 5 455 1 472 1 471 1 470 1 468 1
428 0 5 455 1 472 1 471 1 470 1 468 1
429 0 5 455 1 472 1 471 1 470 1 468 1
430 0 5 455 1 472 1 471 1 470 1 468 1
431 0 5 455 1 472 1 471 1 470 1 468 1
432 0 5 455 1 472 1 471 1 470 1 468 1
433 0 5 455 1 472 1 471 1 470 1 468 1
434 0 5 455 1 472 1 471 1 470 1 468 1
435 0 5 455 1 472 1 471 1 470 1 468 1
436 0 5 455 1 472 1 471 1 470 1 468 1
437 0 5 455 1 472 1 471 1 470 1 468 1
438 0 5 455 1 472 1 471 1 470 1 468 1
439 0 5 455 1 472 1 471 1 470 1 468 1
440 0 5 455 1 472 1 471 1 470 1 468 1
441 0 5 455 1 472 1 471 1 470 1 468 1
442 0 5 455 1 472 1 471 1 470 1 468 1
443 0 5 455 1 472 1 471 1 470 1 468 1
444 0 5 455 1 472 1 471 1 470 1 468 1
445 0 5 455 1 472 1 471 1 470 1 468 1
446 0 5 455 1 472 1 471 1 470 1 468 1
447 0 5 455 1 472 1 471 1 470 1 468 1
448 0 5 455 1 472 1 471 1 470 1 468 1
449 0 5 455 1 472 1 471 1 470 1 468 1
450 0 5 455 1 472 1 471 1 470 1 468 1
451 0 5 455 1 472 1 471 1 470 1 468 1
452 0 5 455 1 472 1 471 1 470 1 468 1
453 0 5 455 1 472 1 471 1 470 1 468 1
454 0 5 455 1 472 1 471 1 470 1 468 1
455 0 5 455 1 472 1 471 1 470 1 468 1
456 0 5 455 1 472 1 471 1 470 1 468 1
457 0 5 455 1 472 1 471 1 470 1 468 1
458 0 5 455 1 472 1 471 1 470 1 468 1
459 0 5 455 1 472 1 471 1 470 1 468 1
460 0 5 455 1 472 1 471 1 470 1 468 1
461 0 5 455 1 472 1 471 1 470 1 468 1
462 0 5 455 1 472 1 471 1 470 1 468 1
463 0 5 455 1 472 1 471 1 470 1 468 1
464 0 5 455 1 472 1 471 1 470 1 468 1
465 0 5 455 1 472 1 471 1 470 1 468 1
466 0 5 455 1 472 1 471 1 470 1 468 1
467 0 5 455 1 472 1 471 1 470 1 468 1
468 0 5 455 1 472 1 471 1 470 1 468 1
469 0 5 455 1 472 1 471 1 470 1 468 1
470 0 5 455 1 472 1 471 1 470 1 468 1
471 0 5 455 1 472 1 471 1 470 1 468 1
472 0 5 455 1 472 1 471 1 470 1 468 1
473 0 5 455 1 472 1 471 1 470 1 468 1
474 0 5 455 1 472 1 471 1 470 1 468 1
475 0 5 455 1 472 1 471 1 470 1 468 1
476 0 5 455 1 472 1 471 1 470 1 468 1
477 0 5 455 1 472 1 471 1 470 1 468 1
478 0 5 455 1 472 1 471 1 470 1 468 1
479 0 5 455 1 472 1 471 1 470 1 468 1
480 0 5 455 1 472 1 471 1 470 1 468 1
481 0 5 455 1 472 1 471 1 470 1 468 1
482 0 5 455 1 472 1 471 1 470 1 468 1
483 0 5 455 1 472 1 471 1 470 1 468 1
484 0 5 455 1 472 1 471 1 470 1 468 1
485 0 5 455 1 472 1 471 1 470 1 468 1
486 0 5 455 1 472 1 471 1 470 1 468 1
487 0 5 455 1 472 1 471 1 470 1 468 1
488 0 5 455 1 472 1 471 1 470 1 468 1
489 0 5 455 1 472 1 471 1 470 1 468 1
490 0 5 455 1 472 1 471 1 470 1 468 1
491 0 5 455 1 472 1 471 1 470 1 468 1
492 0 5 455 1 472 1 471 1 470 1 468 1
493 0 5 455 1 472 1 471 1 470 1 468 1
494 0 5 455 1 472 1 471 1 470 1 468 1
495 0 5 455 1 472 1 471 1 470 1 468 1
496 0 5 455 1 472 1 471 1 470 1 468 1
497 0 5 455 1 472 1 471 1 470 1 468 1
498 0 5 455 1 472 1 471 1 470 1 468 1
499 0 5 455 1 472 1 471 1 470 1 468 1
500 0 5 455 1 472 1 471 1 470 1 468 1
501 0 5 455 1 472 1 471 1 470 1 468 1
502 0 5 455 1 472 1 471 1 470 1 468 1
503 0 5 455 1 472 1 471 1 470 1 468 1
504 0 5 455 1 472 1 471 1 470 1 468 1
505 0 5 455 1 472 1 471 1 470 1 468 1
506 0 5 455 1 472 1 471 1 470 1 468 1
507 0 5 455 1 472 1 471 1 470 1 468 1
508 0 5 455 1 472 1 471 1 470 1 468 1
509 0 5 455 1 472 1 471 1 470 1 468 1
510 0 5 455 1 472 1 471 1 470 1 468 1
511 0 5 455 1 472 1 471 1 470 1 468 1
512 0 5 455 1 472 1 471 1 470 1 468 1
513 0 5 455 1 472 1 471 1 470 1 468 1
514 0 5 455 1 472 1 471 1 470 1 468 1
515 0 5 455 1 472 1 471 1 470 1 468 1
516 0 5 455 1 472 1 471 1 470 1 468 1
517 0 5 455 1 472 1 471 1 470 1 468 1
518 0 5 455 1 472 1 471 1 470 1 468 1
519 0 5 455 1 472 1 471 1 470 1 468 1
520 0 5 455 1 472 1 471 1 470 1 468 1
521 0 5 455 1 472 1 471 1 470 1 468 1
522 0 5 455 1 472 1 471 1 470 1 468 1
523 0 5 455 1 472 1 471 1 470 1 468 1
524 0 5 455 1 472 1 471 1 470 1 468 1
525 0 5 455 1 472 1 471 1 470 1 468 1
526 0 5 455 1 472 1 471 1 470 1 468 1
527 0 5 455 1 472 1 471 1 470 1 468 1
528 0 5 455 1 472 1 471 1 470 1 468 1
529 0 5 455 1 472 1 471 1 470 1 468 1
530 0 5 455 1 472 1 471 1 470 1 468 1
531 0 5 455 1 472 1 471 1 470 1 468 1
532 0 5 455 1 472 1 471 1 470 1 468 1
533 0 5 455 1 472 1 471 1 470 1 468 1
534 0 5 455 1 472 1 471 1 470 1 468 1
535 0 5 455 1 472 1 471 1 470 1 468 1
536 0 5 455 1 472 1 471 1 470 1 468 1
537 0 5 455 1 472 1 471 1 470 1 468 1
538 0 5 455 1 472 1 471 1 470 1 468 1
539 0 5 455 1 472 1 471 1 470 1 468 1
540 0 5 455 1 472 1 471 1 470 1 468 1
541 0 5 455 1 472 1 471 1 470 1 468 1
542 0 5 455 1 472 1 471 1 470 1 468 1
543 0 5 455 1 472 1 471 1 470 1 468 1
544 0 5 455 1 472 1 471 1 470 1 468 1
545 0 5 455 1 472 1 471 1 470 1 468 1
546 0 5 455 1 472 1 471 1 470 1 468 1
547 0 5 455 1 472 1 471 1 470 1 468 1
548 0 5 455 1 472 1 471 1 470 1 468 1
549 0 5 455 1 472 1 471 1 470 1 468 1
-1
EOF
